
Gurobi 11.0.3 (linux64) logging started Mon 18 Nov 2024 09:47:49 PM CST

Set parameter LogFile to value "/home/dlcole3/graph_abstraction/hierarchical_graphs/git_storage/CS1/HP_low_reserves/gurobi_logs/serial/logfile_ST13_2.log"

Gurobi 11.0.3 (linux64) logging started Mon 18 Nov 2024 09:48:56 PM CST

Set parameter LogFile to value "/home/dlcole3/graph_abstraction/hierarchical_graphs/git_storage/CS1/HP_low_reserves/gurobi_logs/serial/logfile_ST13_2.log"
Gurobi Optimizer version 11.0.3 build v11.0.3rc0 (linux64 - "Ubuntu 18.04.3 LTS")

CPU model: Intel(R) Xeon(R) CPU E5-2698 v4 @ 2.20GHz, instruction set [SSE2|AVX|AVX2]
Thread count: 40 physical cores, 80 logical processors, using up to 20 threads

Optimize a model with 29168 rows, 50688 columns and 136175 nonzeros
Model fingerprint: 0xb7176461
Variable types: 46944 continuous, 3744 integer (3744 binary)
Coefficient statistics:
  Matrix range     [6e-01, 2e+04]
  Objective range  [2e+00, 2e+04]
  Bounds range     [5e-02, 2e+05]
  RHS range        [5e-02, 7e+03]
Presolve removed 14289 rows and 38825 columns
Presolve time: 0.39s
Presolved: 14879 rows, 11863 columns, 63833 nonzeros
Variable types: 8799 continuous, 3064 integer (3064 binary)
Found heuristic solution: objective 174894.32286
Found heuristic solution: objective 166209.19786
Found heuristic solution: objective 139103.40183

Root relaxation: objective 3.191581e+04, 7364 iterations, 0.31 seconds (0.21 work units)

    Nodes    |    Current Node    |     Objective Bounds      |     Work
 Expl Unexpl |  Obj  Depth IntInf | Incumbent    BestBd   Gap | It/Node Time

     0     0 31915.8142    0    5 139103.402 31915.8142  77.1%     -    1s
H    0     0                    139103.40047 31915.8142  77.1%     -    1s
H    0     0                    43577.495850 31915.8142  26.8%     -    1s
H    0     0                    43577.495806 31915.8142  26.8%     -    1s
     0     0 31915.8142    0    5 43577.4958 31915.8142  26.8%     -    1s
H    0     2                    43577.493465 31915.8142  26.8%     -    2s
     0     2 31915.8142    0    5 43577.4935 31915.8142  26.8%     -    2s
H   38    52                    36784.232731 31915.8643  13.2%  10.7    2s
H   41    52                    34863.886044 31915.8643  8.46%  12.4    2s
H   42    52                    34783.558026 31915.8643  8.24%  12.2    2s
H   43    52                    34513.035449 31915.8643  7.53%  11.9    2s
H   45    52                    34153.178296 31915.8643  6.55%  11.5    2s
H   46    52                    34055.859701 31915.8643  6.28%  11.3    2s
H   48    52                    33096.224239 31915.8643  3.57%  11.0    2s
H   92    80                    33044.894891 31915.8643  3.42%   8.8    2s
*  110    80               7    32838.036118 31915.8643  2.81%   9.8    2s
H  131   101                    32584.328867 31915.8643  2.05%   9.4    2s
H  162   117                    32469.719096 31915.8643  1.71%   8.9    2s
H  249   152                    32446.467255 31915.8643  1.64%   7.7    2s
H  284   159                    32337.531778 31964.8082  1.15%   7.3    2s
H  328   154                    32311.277241 31964.8082  1.07%   6.6    2s
*  492   162              25    32310.773011 31978.7485  1.03%   4.9    2s
H  540   162                    32246.654260 31978.7986  0.83%   4.6    3s
*  655   135              29    32246.415014 32048.1939  0.61%   4.1    3s
H  859   141                    32246.364896 32152.6567  0.29%   3.5    3s

Explored 884 nodes (10413 simplex iterations) in 3.32 seconds (2.11 work units)
Thread count was 20 (of 80 available processors)

Solution count 10: 32246.4 32246.4 32246.4 ... 32838

Optimal solution found (tolerance 3.00e-03)
Best objective 3.224636489624e+04, best bound 3.215265668723e+04, gap 0.2906%

User-callback calls 3298, time in user-callback 0.00 sec
